data/solutions/planning/wellformed/intermediate/highest_rank_objective/wellformed_intermediate_instance72_cplex.sol
Elapsed time: 27.17
Nodes explored: 2647
Nodes left: -
Relative gap: -
Upper bound: 5081213803.0
Lower bound: -
C[0]=310154.0
C[1]=310154.0
C[2]=310146.0
C[3]=310146.0
C[4]=310145.0
C[5]=310138.0
C[6]=310137.0
C[7]=310129.0
C[8]=310121.0
C[9]=310120.0
C[10]=310120.0
C[11]=310119.0
C[12]=310118.0
C[13]=310115.0
y[0]=0
y[1]=8
y[2]=12
y[3]=5
y[4]=3
y[5]=0
y[6]=7
y[7]=2
y[8]=0
y[9]=6
y[10]=13
y[11]=6
y[12]=5
y[13]=5
y[14]=5
y[15]=0
y[16]=5
y[17]=13
y[18]=2
y[19]=3
y[20]=2
y[21]=5
y[22]=6
y[23]=5
y[24]=0
y[25]=5
y[26]=4
y[27]=4
y[28]=0
y[29]=1
y[30]=0
y[31]=11
y[32]=13
y[33]=5
y[34]=0
y[35]=8
y[36]=7
y[37]=13
y[38]=1
y[39]=1
y[40]=6
y[41]=1
y[42]=5
y[43]=0
y[44]=5
y[45]=3
y[46]=8
y[47]=4
y[48]=6
y[49]=0
y[50]=12
y[51]=4
y[52]=1
y[53]=1
y[54]=5
y[55]=9
y[56]=5
y[57]=6
y[58]=5
y[59]=13
y[60]=11
y[61]=6
y[62]=5
y[63]=3
y[64]=1
y[65]=7
y[66]=0
y[67]=3
y[68]=5
y[69]=0
y[70]=10
y[71]=5
y[72]=5
y[73]=7
y[74]=4
y[75]=5
y[76]=5
y[77]=8
y[78]=9
y[79]=8
y[80]=7
y[81]=5
y[82]=12
y[83]=11
y[84]=3
y[85]=4
y[86]=0
y[87]=1
y[88]=13
y[89]=4
y[90]=6
y[91]=5
y[92]=11
y[93]=2
y[94]=5
y[95]=9
y[96]=5
y[97]=5
y[98]=4
y[99]=9
y[100]=5
y[101]=8
y[102]=9
y[103]=10
y[104]=5
y[105]=13
y[106]=5
y[107]=7
y[108]=10
y[109]=1
y[110]=13
y[111]=0
y[112]=10
y[113]=10
y[114]=10
y[115]=5
y[116]=9
y[117]=0
y[118]=1
y[119]=5
y[120]=13
y[121]=5
y[122]=1
y[123]=5
y[124]=2
y[125]=10
y[126]=9
y[127]=12
y[128]=5
y[129]=5
y[130]=2
y[131]=6
y[132]=11
y[133]=10
y[134]=3
y[135]=1
y[136]=5
y[137]=0
y[138]=7
y[139]=0
y[140]=5
y[141]=12
y[142]=7
y[143]=4
y[144]=7
y[145]=8
y[146]=7
y[147]=1
y[148]=5
y[149]=5
y[150]=5
y[151]=2
y[152]=5
y[153]=2
y[154]=6
y[155]=12
y[156]=9
y[157]=8
y[158]=4
y[159]=5
y[160]=12
y[161]=11
y[162]=9
y[163]=5
y[164]=6
y[165]=0
y[166]=5
y[167]=13
y[168]=0
y[169]=5
y[170]=5
y[171]=8
y[172]=7
y[173]=1
y[174]=11
y[175]=4
y[176]=11
y[177]=3
y[178]=0
y[179]=4
y[180]=5
y[181]=11
y[182]=11
y[183]=13
y[184]=5
y[185]=5
y[186]=4
y[187]=9
y[188]=5
y[189]=4
y[190]=4
y[191]=9
y[192]=5
y[193]=5
y[194]=4
y[195]=6
y[196]=5
y[197]=12
y[198]=0
y[199]=1
y[200]=12
y[201]=1
y[202]=0
y[203]=2
y[204]=10
y[205]=10
y[206]=3
y[207]=8
y[208]=6
y[209]=5
y[210]=2
y[211]=2
y[212]=13
y[213]=6
y[214]=4
y[215]=7
y[216]=11
y[217]=10
y[218]=9
y[219]=5
y[220]=11
y[221]=11
y[222]=10
y[223]=9
y[224]=5
y[225]=3
y[226]=3
y[227]=9
y[228]=5
y[229]=10
y[230]=0
y[231]=5
y[232]=5
y[233]=2
y[234]=1
y[235]=4
y[236]=5
y[237]=10
y[238]=0
y[239]=3
y[240]=9
y[241]=5
y[242]=13
y[243]=5
y[244]=0
y[245]=5
y[246]=1
y[247]=1
y[248]=13
y[249]=0
y[250]=11
y[251]=5
y[252]=3
y[253]=2
y[254]=5
y[255]=0
y[256]=13
y[257]=0
y[258]=3
y[259]=1
y[260]=9
y[261]=5
y[262]=4
y[263]=4
y[264]=12
y[265]=11
y[266]=5
y[267]=9
y[268]=6
y[269]=5
y[270]=0
y[271]=10
y[272]=5
y[273]=2
y[274]=12
y[275]=5
y[276]=5
y[277]=11
y[278]=10
y[279]=5
y[280]=6
y[281]=12
y[282]=9
y[283]=7
y[284]=3
y[285]=5
y[286]=0
y[287]=4
y[288]=5
y[289]=5
y[290]=2
y[291]=6
y[292]=5
y[293]=2
y[294]=0
y[295]=6
y[296]=5
y[297]=7
y[298]=10
y[299]=9
y[300]=3
y[301]=6
y[302]=7
y[303]=7
y[304]=5
y[305]=8
y[306]=1
y[307]=13
y[308]=11
y[309]=8
y[310]=8
y[311]=0
y[312]=5
y[313]=8
y[314]=5
y[315]=13
y[316]=7
y[317]=2
y[318]=9
y[319]=6
y[320]=8
y[321]=2
y[322]=5
y[323]=3
y[324]=5
y[325]=5
y[326]=5
y[327]=11
y[328]=1
y[329]=10
y[330]=5
y[331]=12
y[332]=12
y[333]=7
y[334]=9
y[335]=1
y[336]=7
y[337]=5
y[338]=5
y[339]=5
y[340]=3
y[341]=5
y[342]=0
y[343]=1
y[344]=11
y[345]=12
y[346]=0
y[347]=5
y[348]=4
y[349]=13
y[350]=1
y[351]=11
y[352]=12
y[353]=11
y[354]=2
y[355]=8
y[356]=7
y[357]=10
y[358]=5
y[359]=12
y[360]=5
y[361]=9
y[362]=5
y[363]=7
y[364]=1
y[365]=8
y[366]=9
y[367]=2
y[368]=0
y[369]=4
y[370]=9
y[371]=13
y[372]=8
y[373]=8
y[374]=10
y[375]=7
y[376]=8
y[377]=12
y[378]=0
y[379]=11
y[380]=3
y[381]=6
y[382]=12
y[383]=13
y[384]=5
y[385]=5
y[386]=6
y[387]=0
y[388]=3
y[389]=4
y[390]=5
y[391]=1
y[392]=12
y[393]=2
y[394]=1
y[395]=0
y[396]=1
y[397]=5
y[398]=5
y[399]=10
