data/solutions/planning/wellformed/intermediate/highest_rank_objective/wellformed_intermediate_instance72_cplex.log
Found incumbent of value 4341862.000000 after 0.00 sec. (0.45 ticks)
Tried aggregator 2 times.
Aggregator did 14 substitutions.
Reduced MIP has 414 rows, 5601 columns, and 11214 nonzeros.
Reduced MIP has 5600 binaries, 0 generals, 0 SOSs, and 0 indicators.
Presolve time = 0.01 sec. (8.27 ticks)
Tried aggregator 1 time.
Reduced MIP has 414 rows, 5601 columns, and 11214 nonzeros.
Reduced MIP has 5600 binaries, 1 generals, 0 SOSs, and 0 indicators.
Presolve time = 0.01 sec. (5.40 ticks)
Probing time = 0.00 sec. (2.25 ticks)
Clique table members: 400.
MIP emphasis: balance optimality and feasibility.
MIP search method: dynamic search.
Parallel mode: none, using 1 thread.
Root relaxation solution time = 0.01 sec. (26.87 ticks)

        Nodes                                         Cuts/
   Node  Left     Objective  IInf  Best Integer    Best Bound    ItCnt     Gap

*     0+    0                      4341862.0000        0.0000           100.00%
      0     0   310133.0000    26  4341862.0000   310133.0000      465   92.86%
*     0+    0                       318088.0000   310133.0000             2.50%
      0     0   310133.0000    31   318088.0000      Fract: 5      480    2.50%
*     0+    0                       316696.0000   310133.0000             2.07%
      0     0   310133.0000    26   316696.0000      Cuts: 10      494    2.07%
*     0+    0                       316195.0000   310133.0000             1.92%
      0     0   310133.0000    30   316195.0000       Cuts: 6      503    1.92%
*     0+    0                       313666.0000   310133.0000             1.13%
*     0+    0                       313607.0000   310133.0000             1.11%
*     0+    0                       313419.0000   310133.0000             1.05%
*     0+    0                       313385.0000   310133.0000             1.04%
*     0+    0                       313374.0000   310133.0000             1.03%
*     0+    0                       311882.0000   310133.0000             0.56%
      0     2   310133.0000    28   311882.0000   310133.0000      504    0.56%
Elapsed time = 0.39 sec. (511.96 ticks, tree = 0.01 MB, solutions = 10)
     84    86   310133.0000    23   311882.0000   310133.0000      896    0.56%
     85    87   310133.0000    24   311882.0000   310133.0000      904    0.56%
     86    88   310133.0000    24   311882.0000   310133.0000      907    0.56%
     87    89   310133.0000    24   311882.0000   310133.0000      913    0.56%
     88    90   310133.0000    24   311882.0000   310133.0000      914    0.56%
     89    91   310133.0000    24   311882.0000   310133.0000      915    0.56%
     90    92   310133.0000    24   311882.0000   310133.0000      916    0.56%
     91    93   310133.0000    23   311882.0000   310133.0000      922    0.56%
     92    94   310133.0000    24   311882.0000   310133.0000      929    0.56%
*   470+  470                       311860.0000   310133.0000             0.55%
    476   478   310133.0000    24   311860.0000   310133.0000     3426    0.55%
Elapsed time = 1.02 sec. (1466.53 ticks, tree = 3.72 MB, solutions = 11)
*   490+  490                       311850.0000   310133.0000             0.55%
*   500+  500                       311785.0000   310133.0000             0.53%
*   550+  550                       311758.0000   310133.0000             0.52%
*   570+  570                       311682.0000   310133.0000             0.50%
*   610+  610                       311679.0000   310133.0000             0.50%
*   640+  640                       311674.0000   310133.0000             0.49%
*   650+  648                       311655.0000   310133.0000             0.49%
*   680+  678                       311648.0000   310133.0000             0.49%
*   680+  676                       311621.0000   310133.0000             0.48%
*   690+  686                       311607.0000   310133.0000             0.47%
*   720+  714                       311585.0000   310133.0000             0.47%
*   730+  717                       311492.0000   310133.0000             0.44%
*   740+  725                       311444.0000   310133.0000             0.42%
*   750+  725                       311367.0000   310133.0000             0.40%
*   760+  733                       311330.0000   310133.0000             0.38%
*   768   741      integral     0   311316.0000   310133.0000     4467    0.38%
*   878+  841                       311231.0000   310133.0000             0.35%
*   879+  838                       311043.0000   310133.0000             0.29%
*   879+  836                       310939.0000   310133.0000             0.26%
*   879+  834                       310920.0000   310133.0000             0.25%
    881   838   310133.0000    23   310920.0000   310133.0000     5752    0.25%
    882   839   310133.0000    22   310920.0000   310133.0000     5754    0.25%
    883   840   310133.0000    21   310920.0000   310133.0000     5758    0.25%
    884   840   310133.0000    22   310920.0000   310133.0000     5765    0.25%
    885   841   310133.0000    23   310920.0000   310133.0000     5769    0.25%
    886   842   310133.0000    23   310920.0000   310133.0000     5779    0.25%
    887   843   310133.0000    23   310920.0000   310133.0000     5788    0.25%
    888   843   310133.0000    23   310920.0000   310133.0000     5791    0.25%
    889   843   310133.0000    23   310920.0000   310133.0000     5793    0.25%
    890   844   310133.0000    23   310920.0000   310133.0000     5799    0.25%
Elapsed time = 2.16 sec. (3021.79 ticks, tree = 6.81 MB, solutions = 31)
    991   904   310133.0000    20   310920.0000   310133.0000     6451    0.25%
    992   904   310133.0000    20   310920.0000   310133.0000     6476    0.25%
    993   904   310133.0000    21   310920.0000   310133.0000     6480    0.25%
    994   904   310133.0000    20   310920.0000   310133.0000     6498    0.25%
    995   905   310133.0000    19   310920.0000   310133.0000     6510    0.25%
    996   906   310133.0000    20   310920.0000   310133.0000     6528    0.25%
    997   907   310133.0000    22   310920.0000   310133.0000     6542    0.25%
    998   908   310133.0000    23   310920.0000   310133.0000     6555    0.25%
    999   909   310133.0000    23   310920.0000   310133.0000     6566    0.25%
   1000   909   310133.0000    23   310920.0000   310133.0000     6577    0.25%
Elapsed time = 2.80 sec. (4059.15 ticks, tree = 7.26 MB, solutions = 31)
   1081   958   310133.0000    20   310920.0000   310133.0000     8302    0.25%
   1082   958   310133.0000    20   310920.0000   310133.0000     8333    0.25%
   1083   958   310133.0000    22   310920.0000   310133.0000     8359    0.25%
   1084   958   310133.0000    20   310920.0000   310133.0000     8374    0.25%
   1085   959   310133.0000    22   310920.0000   310133.0000     8395    0.25%
   1086   960   310133.0000    21   310920.0000   310133.0000     8411    0.25%
   1087   961   310133.0000    21   310920.0000   310133.0000     8458    0.25%
   1088   962   310133.0000    21   310920.0000   310133.0000     8484    0.25%
   1089   962   310133.0000    21   310920.0000   310133.0000     8512    0.25%
   1090   963   310133.0000    20   310920.0000   310133.0000     8524    0.25%
Elapsed time = 3.46 sec. (5108.62 ticks, tree = 7.68 MB, solutions = 31)
   1241  1041   310133.0000    24   310920.0000   310133.0000    11741    0.25%
   1242  1042   310133.0000    24   310920.0000   310133.0000    11742    0.25%
   1243  1043   310133.0000    25   310920.0000   310133.0000    11744    0.25%
   1244  1043   310133.0000    24   310920.0000   310133.0000    11747    0.25%
   1245  1043   310133.0000    24   310920.0000   310133.0000    11748    0.25%
   1246  1044   310133.0000    24   310920.0000   310133.0000    11749    0.25%
   1247  1044   310133.0000    24   310920.0000   310133.0000    11750    0.25%
   1248  1045   310133.0000    24   310920.0000   310133.0000    11751    0.25%
   1249  1046   310133.0000    24   310920.0000   310133.0000    11752    0.25%
   1250  1047   310133.0000    25   310920.0000   310133.0000    11754    0.25%
Elapsed time = 4.12 sec. (6098.02 ticks, tree = 8.37 MB, solutions = 31)
*  1521+  923                       310407.0000   310133.0000             0.09%
   1553   944   310133.0000    21   310407.0000   310133.0000    13545    0.09%
   1554   945   310133.0000    20   310407.0000   310133.0000    13553    0.09%
   1555   946   310133.0000    20   310407.0000   310133.0000    13567    0.09%
   1556   947   310133.0000    21   310407.0000   310133.0000    13580    0.09%
   1557   947   310133.0000    22   310407.0000   310133.0000    13593    0.09%
   1558   948   310133.0000    20   310407.0000   310133.0000    13623    0.09%
   1559   949   310133.0000    20   310407.0000   310133.0000    13649    0.09%
   1560   949   310133.0000    20   310407.0000   310133.0000    13660    0.09%
   1561   950   310133.0000    20   310407.0000   310133.0000    13674    0.09%
   1562   951   310133.0000    20   310407.0000   310133.0000    13682    0.09%
Elapsed time = 4.76 sec. (7095.74 ticks, tree = 7.69 MB, solutions = 32)
   1730  1047   310133.0000    24   310407.0000   310133.0000    15859    0.09%
   1731  1048   310133.0000    21   310407.0000   310133.0000    15889    0.09%
   1732  1049   310133.0000    25   310407.0000   310133.0000    15904    0.09%
   1733  1050   310133.0000    21   310407.0000   310133.0000    15944    0.09%
   1734  1050   310133.0000    25   310407.0000   310133.0000    15945    0.09%
   1735  1050   310133.0000    25   310407.0000   310133.0000    15959    0.09%
   1736  1051   310133.0000    22   310407.0000   310133.0000    15995    0.09%
   1737  1051   310133.0000    24   310407.0000   310133.0000    16017    0.09%
   1738  1051   310133.0000    23   310407.0000   310133.0000    16019    0.09%
   1739  1052   310133.0000    23   310407.0000   310133.0000    16022    0.09%
Elapsed time = 5.49 sec. (8083.40 ticks, tree = 8.49 MB, solutions = 32)
   2126  1274   310146.0000    15   310407.0000   310133.0000    17967    0.09%
   2127  1274   310146.0000    14   310407.0000   310133.0000    17971    0.09%
   2128  1274   310146.0000    15   310407.0000   310133.0000    17972    0.09%
   2129  1275   310146.0000    15   310407.0000   310133.0000    17973    0.09%
   2130  1276   310146.0000    15   310407.0000   310133.0000    17974    0.09%
   2131  1276   310146.0000    15   310407.0000   310133.0000    17975    0.09%
   2132  1277   310146.0000    15   310407.0000   310133.0000    17976    0.09%
   2133  1278   310146.0000    15   310407.0000   310133.0000    17977    0.09%
   2134  1278   310146.0000    17   310407.0000   310133.0000    17979    0.09%
   2135  1278   310146.0000    16   310407.0000   310133.0000    17980    0.09%
Elapsed time = 6.10 sec. (9052.93 ticks, tree = 10.57 MB, solutions = 32)
*  2211+ 1273                       310355.0000   310133.0000             0.07%
*  2221+ 1254                       310324.0000   310133.0000             0.06%
*  2261+ 1261                       310297.0000   310133.0000             0.05%
*  2281+ 1262                       310264.0000   310133.0000             0.04%
*  2321+ 1302                       310263.0000   310133.0000             0.04%
*  2341+ 1308                       310238.0000   310133.0000             0.03%
*  2368  1322      integral     0   310225.0000   310133.0000    18649    0.03%
*  2371+ 1308                       310192.0000   310133.0000             0.02%
*  2375  1077      integral     0   310154.0000   310133.0000    18660    0.01%

Cover cuts applied:  2
Mixed integer rounding cuts applied:  2
Zero-half cuts applied:  1

Root node processing (before b&c):
  Real time             =    0.39 sec. (513.37 ticks)
Sequential b&c:
  Real time             =    5.98 sec. (9046.95 ticks)
                          ------------
Total (root+branch&cut) =    6.37 sec. (9560.32 ticks)

Populate: phase II 
Tried aggregator 2 times.
Aggregator did 14 substitutions.
Reduced MIP has 414 rows, 5601 columns, and 11214 nonzeros.
Reduced MIP has 5600 binaries, 0 generals, 0 SOSs, and 0 indicators.
Presolve time = 0.01 sec. (8.27 ticks)
Probing time = 0.00 sec. (2.25 ticks)
Clique table members: 400.
MIP emphasis: balance optimality and feasibility.
MIP search method: dynamic search.
Parallel mode: none, using 1 thread.
Root relaxation solution time = 0.01 sec. (26.87 ticks)

        Nodes                                         Cuts/
   Node  Left     Objective  IInf  Best Integer    Best Bound    ItCnt     Gap

*     0+    0                       310154.0000        0.0000           100.00%
      0     0   310133.0000    26   310154.0000   310133.0000      465    0.01%
      0     2   310133.0000    26   310154.0000   310133.0000      465    0.01%
Elapsed time = 0.44 sec. (496.94 ticks, tree = 0.01 MB, solutions = 69)
      1     3   310133.0000    26   310154.0000   310133.0000      467    0.01%
      2     4   310133.0000    26   310154.0000   310133.0000      470    0.01%
      3     5   310133.0000    25   310154.0000   310133.0000      475    0.01%
      4     6   310133.0000    25   310154.0000   310133.0000      478    0.01%
      5     7   310133.0000    24   310154.0000   310133.0000      481    0.01%
      6     8   310133.0000    24   310154.0000   310133.0000      483    0.01%
      7     9   310133.0000    23   310154.0000   310133.0000      485    0.01%
      8    10   310133.0000    24   310154.0000   310133.0000      488    0.01%
      9    11   310133.0000    23   310154.0000   310133.0000      492    0.01%
     10    12   310133.0000    23   310154.0000   310133.0000      497    0.01%
Elapsed time = 2.99 sec. (3068.45 ticks, tree = 0.07 MB, solutions = 202)
     27    29   310133.0000    22   310154.0000   310133.0000      571    0.01%
     28    30   310133.0000    22   310154.0000   310133.0000      572    0.01%
     29    31   310133.0000    22   310154.0000   310133.0000      578    0.01%
     30    32   310133.0000    22   310154.0000   310133.0000      583    0.01%
     31    33   310133.0000    22   310154.0000   310133.0000      587    0.01%
     32    34   310133.0000    21   310154.0000   310133.0000      591    0.01%
     33    35   310133.0000    22   310154.0000   310133.0000      597    0.01%
     34    36   310133.0000    21   310154.0000   310133.0000      602    0.01%
     35    37   310133.0000    23   310154.0000   310133.0000      608    0.01%
     36    38   310133.0000    21   310154.0000   310133.0000      614    0.01%
Elapsed time = 4.81 sec. (4622.62 ticks, tree = 0.25 MB, solutions = 395)
     53    55   310133.0000    23   310154.0000   310133.0000      687    0.01%
     54    56   310133.0000    21   310154.0000   310133.0000      689    0.01%
     55    57   310133.0000    22   310154.0000   310133.0000      693    0.01%
     56    58   310133.0000    21   310154.0000   310133.0000      698    0.01%
     57    59   310133.0000    23   310154.0000   310133.0000      702    0.01%
     58    60   310133.0000    21   310154.0000   310133.0000      704    0.01%
     59    61   310133.0000    23   310154.0000   310133.0000      710    0.01%
     60    62   310133.0000    21   310154.0000   310133.0000      713    0.01%
     61    63   310133.0000    23   310154.0000   310133.0000      717    0.01%
     62    64   310133.0000    21   310154.0000   310133.0000      720    0.01%
Elapsed time = 6.71 sec. (6176.60 ticks, tree = 0.44 MB, solutions = 627)
     80    82   310133.0000    21   310154.0000   310133.0000      781    0.01%
     81    83   310133.0000    22   310154.0000   310133.0000      785    0.01%
     82    84   310133.0000    22   310154.0000   310133.0000      787    0.01%
     83    85   310133.0000    23   310154.0000   310133.0000      793    0.01%
     84    86   310133.0000    21   310154.0000   310133.0000      799    0.01%
     85    87   310133.0000    21   310154.0000   310133.0000      803    0.01%
     86    88   310133.0000    21   310154.0000   310133.0000      804    0.01%
     87    89   310133.0000    21   310154.0000   310133.0000      805    0.01%
     88    90   310133.0000    21   310154.0000   310133.0000      810    0.01%
     89    91   310133.0000    22   310154.0000   310133.0000      818    0.01%
Elapsed time = 8.53 sec. (7707.11 ticks, tree = 0.62 MB, solutions = 814)
    106   108   310133.0000    21   310154.0000   310133.0000      880    0.01%
    107   109   310133.0000    23   310154.0000   310133.0000      884    0.01%
    108   110   310133.0000    21   310154.0000   310133.0000      886    0.01%
    109   111   310133.0000    22   310154.0000   310133.0000      890    0.01%
    110   112   310133.0000    21   310154.0000   310133.0000      893    0.01%
    111   113   310133.0000    23   310154.0000   310133.0000      897    0.01%
    112   114   310133.0000    22   310154.0000   310133.0000      902    0.01%
    113   115   310133.0000    21   310154.0000   310133.0000      905    0.01%
    114   116   310133.0000    21   310154.0000   310133.0000      909    0.01%
    115   117   310133.0000    22   310154.0000   310133.0000      918    0.01%
Elapsed time = 10.42 sec. (9279.20 ticks, tree = 0.81 MB, solutions = 1004)
    133   135   310133.0000    21   310154.0000   310133.0000     1021    0.01%
    134   136   310133.0000    22   310154.0000   310133.0000     1024    0.01%
    135   137   310133.0000    21   310154.0000   310133.0000     1026    0.01%
    136   138   310133.0000    22   310154.0000   310133.0000     1033    0.01%
    137   139   310133.0000    21   310154.0000   310133.0000     1034    0.01%
    138   140   310133.0000    21   310154.0000   310133.0000     1039    0.01%
    139   141   310133.0000    21   310154.0000   310133.0000     1041    0.01%
    140   142   310133.0000    21   310154.0000   310133.0000     1048    0.01%
    141   143   310133.0000    21   310154.0000   310133.0000     1050    0.01%
    142   144   310133.0000    21   310154.0000   310133.0000     1056    0.01%
Elapsed time = 12.06 sec. (10643.60 ticks, tree = 1.00 MB, solutions = 1173)
    160   162   310133.0000    23   310154.0000   310133.0000     1135    0.01%
    161   163   310133.0000    24   310154.0000   310133.0000     1140    0.01%
    162   164   310133.0000    22   310154.0000   310133.0000     1142    0.01%
    163   165   310133.0000    23   310154.0000   310133.0000     1146    0.01%
    164   166   310133.0000    23   310154.0000   310133.0000     1150    0.01%
    165   167   310133.0000    23   310154.0000   310133.0000     1154    0.01%
    166   168   310133.0000    23   310154.0000   310133.0000     1155    0.01%
    167   169   310133.0000    24   310154.0000   310133.0000     1163    0.01%
    168   170   310133.0000    23   310154.0000   310133.0000     1165    0.01%
    169   171   310133.0000    24   310154.0000   310133.0000     1173    0.01%
Elapsed time = 13.71 sec. (12020.06 ticks, tree = 1.20 MB, solutions = 1356)
    186   188   310133.0000    21   310154.0000   310133.0000     1235    0.01%
    187   189   310133.0000    22   310154.0000   310133.0000     1240    0.01%
    188   190   310133.0000    21   310154.0000   310133.0000     1242    0.01%
    189   191   310133.0000    22   310154.0000   310133.0000     1245    0.01%
    190   192   310133.0000    22   310154.0000   310133.0000     1248    0.01%
    191   193   310133.0000    21   310154.0000   310133.0000     1251    0.01%
    192   194   310133.0000    21   310154.0000   310133.0000     1254    0.01%
    193   195   310133.0000    21   310154.0000   310133.0000     1258    0.01%
    194   196   310133.0000    22   310154.0000   310133.0000     1263    0.01%
    195   197   310133.0000    22   310154.0000   310133.0000     1266    0.01%
Elapsed time = 15.57 sec. (13598.62 ticks, tree = 1.40 MB, solutions = 1562)
    217   219   310133.0000    23   310154.0000   310133.0000     1346    0.01%
    218   220   310133.0000    22   310154.0000   310133.0000     1350    0.01%
    219   221   310133.0000    24   310154.0000   310133.0000     1361    0.01%
    220   222   310133.0000    22   310154.0000   310133.0000     1362    0.01%
    221   223   310133.0000    22   310154.0000   310133.0000     1365    0.01%
    222   224   310133.0000    23   310154.0000   310133.0000     1369    0.01%
    223   225   310133.0000    24   310154.0000   310133.0000     1377    0.01%
    224   226   310133.0000    22   310154.0000   310133.0000     1378    0.01%
    225   227   310133.0000    24   310154.0000   310133.0000     1388    0.01%
    226   228   310133.0000    22   310154.0000   310133.0000     1390    0.01%
Elapsed time = 17.40 sec. (15140.65 ticks, tree = 1.63 MB, solutions = 1716)
    243   245   310133.0000    24   310154.0000   310133.0000     1473    0.01%
    244   246   310133.0000    23   310154.0000   310133.0000     1475    0.01%
    245   247   310133.0000    23   310154.0000   310133.0000     1478    0.01%
    246   248   310133.0000    22   310154.0000   310133.0000     1481    0.01%
    247   249   310133.0000    23   310154.0000   310133.0000     1486    0.01%
    248   250   310133.0000    22   310154.0000   310133.0000     1488    0.01%
    249   251   310133.0000    23   310154.0000   310133.0000     1492    0.01%
    250   252   310133.0000    21   310154.0000   310133.0000     1494    0.01%
    251   253   310133.0000    24   310154.0000   310133.0000     1502    0.01%

Root node processing (before b&c):
  Real time             =    0.52 sec. (573.42 ticks)
Sequential b&c:
  Real time             =   20.27 sec. (16901.11 ticks)
                          ------------
Total (root+branch&cut) =   20.79 sec. (17474.53 ticks)
